(set-logic ALL)
(declare-fun seed0_I0_5 () Int)
(declare-fun seed0_PCTEMP_LHS_1 () Int)
(declare-fun seed0_T0_5 () String)
(declare-fun seed0_T1_5 () String)
(declare-fun seed0_T2_5 () String)
(declare-fun seed0_T3_5 () String)
(declare-fun seed0_T4_5 () String)
(declare-fun seed0_T5_5 () String)
(declare-fun seed0_T_1 () Bool)
(declare-fun seed0_T_2 () Bool)
(declare-fun seed0_T_3 () Bool)
(declare-fun seed0_T_5 () Bool)
(declare-fun seed0_T_6 () Bool)
(declare-fun seed0_T_SELECT_1 () Bool)
(declare-fun seed0_var_0xINPUT_47672 () String)
(assert (and (or (= seed0_T_1 (= "-" seed0_var_0xINPUT_47672)) (<= (* seed0_I0_5 seed0_PCTEMP_LHS_1) (- seed0_I0_5 919))) (or (= seed0_T_2 (not seed0_T_1)) (str.< (str.++ seed0_T1_5 "2yjEPGpmDhw0zRS6c") (str.++ seed0_T3_5 "gJnOdrz"))) (or seed0_T_2 (xor (< (+ seed0_PCTEMP_LHS_1 (- 124)) (- seed0_PCTEMP_LHS_1 (- 997))) (<= (div seed0_PCTEMP_LHS_1 seed0_I0_5) (mod seed0_PCTEMP_LHS_1 seed0_PCTEMP_LHS_1)))) (or (= seed0_T_3 (= "" seed0_var_0xINPUT_47672)) (and (>= (* seed0_PCTEMP_LHS_1 seed0_I0_5) (+ seed0_PCTEMP_LHS_1 (- 854))) (= (+ seed0_I0_5 518) (* seed0_PCTEMP_LHS_1 seed0_PCTEMP_LHS_1)))) (or seed0_T_3 (>= (div seed0_PCTEMP_LHS_1 seed0_I0_5) (* seed0_PCTEMP_LHS_1 seed0_PCTEMP_LHS_1))) (or (= seed0_T_SELECT_1 (not (= seed0_PCTEMP_LHS_1 (- 1)))) (xor (>= (+ seed0_I0_5 772) (div seed0_PCTEMP_LHS_1 seed0_I0_5)) (= (mod seed0_I0_5 seed0_I0_5) (+ seed0_I0_5 729)))) (or (ite seed0_T_SELECT_1 (and (= seed0_PCTEMP_LHS_1 (+ seed0_I0_5 0)) (= seed0_var_0xINPUT_47672 (str.++ seed0_T0_5 seed0_T1_5)) (= seed0_I0_5 (str.len seed0_T4_5)) (= 0 (str.len seed0_T0_5)) (= seed0_T1_5 (str.++ seed0_T2_5 seed0_T3_5)) (= seed0_T2_5 (str.++ seed0_T4_5 seed0_T5_5)) (= seed0_T5_5 "__utmz=218069774.") (not (str.in_re seed0_T4_5 (re.++ (str.to_re "_") (str.to_re "_") (str.to_re "u") (str.to_re "t") (str.to_re "m") (str.to_re "z") (str.to_re "=") (str.to_re "2") (str.to_re "1") (str.to_re "8") (str.to_re "0") (str.to_re "6") (str.to_re "9") (str.to_re "7") (str.to_re "7") (str.to_re "4") (str.to_re "."))))) (and (= seed0_PCTEMP_LHS_1 (- 1)) (= seed0_var_0xINPUT_47672 (str.++ seed0_T0_5 seed0_T1_5)) (= 0 (str.len seed0_T0_5)) (not (str.in_re seed0_T1_5 (re.++ (str.to_re "_") (str.to_re "_") (str.to_re "u") (str.to_re "t") (str.to_re "m") (str.to_re "z") (str.to_re "=") (str.to_re "2") (str.to_re "1") (str.to_re "8") (str.to_re "0") (str.to_re "6") (str.to_re "9") (str.to_re "7") (str.to_re "7") (str.to_re "4") (str.to_re ".")))))) (not (str.suffixof (str.++ seed0_T0_5 "MwygnWlAoC2RU46cvBT") (str.++ seed0_T3_5 "ue9Awb1drDklGhX")))) (or (= seed0_T_5 (< (- 1) seed0_PCTEMP_LHS_1)) (or (> (div seed0_PCTEMP_LHS_1 seed0_PCTEMP_LHS_1) (* seed0_I0_5 seed0_I0_5)) (= (+ seed0_I0_5 406) (div seed0_PCTEMP_LHS_1 seed0_PCTEMP_LHS_1)))) (or (= seed0_T_6 (not seed0_T_5)) (=> (<= (+ seed0_I0_5 (- 165)) (div seed0_I0_5 seed0_PCTEMP_LHS_1)) (< (div seed0_PCTEMP_LHS_1 seed0_I0_5) (+ seed0_I0_5 (- 782))))) (or seed0_T_6 (=> (str.contains (str.++ seed0_T1_5 "Q2") (str.++ seed0_T3_5 "l5pS7Or")) (str.prefixof (str.++ seed0_T0_5 "kWaChmr") (str.++ seed0_T0_5 "5te1wmkU0sAWqviVzaOF"))))))
(check-sat)
(exit)